NAME : portgen-15-3
COMMENT : portgen N=15, seed=3
TYPE : TSP
DIMENSION : 15
EDGE_WEIGHT_TYPE : EUC_2D
NODE_COORD_SECTION
1 116306 899817
2 155869 626378
3 774407 95279
4 168940 361549
5 947105 49793
6 984224 733089
7 397673 785436
8 726424 426747
9 509927 534698
10 121542 558350
11 204748 623463
12 135814 22783
13 72553 185731
14 469754 241978
15 732577 703750
